[2026-03-01T01:31:42] Logging to: /run/media/saveas/Secondary-Storage/Masters/CS234/CS234_Reinforcement_Learning/Final Project/CS234_Final_Project/results/trajectory_optimization/nlp/TRACK2_280m/base/run_trajopt_demo_output.log
======================================================================
IPOPT TRAJECTORY OPTIMIZATION DEMO (SINGLE STAGE)
======================================================================

1. Loading track: /run/media/saveas/Secondary-Storage/Masters/CS234/CS234_Reinforcement_Learning/Final Project/CS234_Final_Project/maps/TRACK2_280m.mat
   Track length: 280.0 m

2. Creating vehicle model...
   Vehicle: SingleTrackModel(VW_Golf_GTI, weight_transfer=enabled)

3. Loaded obstacles from map: 0

4. Setup:
   N = 120
   ds = 2.33 m
   Obstacle subsamples/segment = 7
   Obstacle enforce midpoints = False
   Obstacle use slack = False
   Track buffer = 0.00 m
   lambda_u = 0.005
   vehicle_radius_m = 0.00
   eps_s = 0.100, eps_kappa = 0.050
   Solver path = Python/CasADi (IPOPT)

======================================================================
SINGLE STAGE: COMBINED OBJECTIVE (ACCEPTANCE-GATED)
======================================================================
Acceptance gates: success=True, max_slack<=0.000e+00, min_clearance>=-0.0010 m
Acceptance policy: practical epsilon mode (allows tiny negative dense clearance).
Initializer: obstacle_aware_init=True, sigma=8.00 m, margin=0.30 m

Attempt 1/4: baseline
  N=120, ds=2.333 m, subsamples=7, obstacle_clearance_m=0.000

******************************************************************************
This program contains Ipopt, a library for large-scale nonlinear optimization.
 Ipopt is released as open source code under the Eclipse Public License (EPL).
         For more information visit https://github.com/coin-or/Ipopt
******************************************************************************

This is Ipopt version 3.14.11, running with linear solver MUMPS 5.4.1.

Number of nonzeros in equality constraint Jacobian...:    13205
Number of nonzeros in inequality constraint Jacobian.:     1658
Number of nonzeros in Lagrangian Hessian.............:     5071

Total number of variables............................:     1210
                     variables with only lower bounds:        0
                variables with lower and upper bounds:        0
                     variables with only upper bounds:        0
Total number of equality constraints.................:      970
Total number of inequality constraints...............:     1296
        inequality constraints with only lower bounds:      812
   inequality constraints with lower and upper bounds:        0
        inequality constraints with only upper bounds:      484

iter    objective    inf_pr   inf_du lg(mu)  ||d||  lg(rg) alpha_du alpha_pr  ls
   0  2.8000000e+01 1.95e-01 1.06e+00  -1.0 0.00e+00    -  0.00e+00 0.00e+00   0
   1  2.7850565e+01 1.99e+00 1.10e+03  -1.0 6.62e+00   2.0 7.01e-01 1.00e+00H  1
   2  2.7851014e+01 1.89e+00 8.55e+02  -1.0 1.87e-01   3.3 7.04e-01 2.50e-01h  3
   3  2.7851974e+01 1.80e+00 1.91e+03  -1.0 3.65e-01   3.8 1.00e+00 1.25e-01h  4
   4  2.7852880e+01 1.73e+00 2.50e+03  -1.0 2.83e-01   4.2 8.63e-01 1.25e-01h  4
   5  2.7864367e+01 4.63e-01 1.91e+04  -1.0 3.02e-01   3.7 1.00e+00 1.00e+00h  1
   6  2.7875406e+01 5.81e-02 5.56e+03  -1.0 1.67e-01   3.2 1.00e+00 1.00e+00h  1
   7  2.7877624e+01 1.78e-03 4.03e+02  -1.0 3.40e-02   2.7 1.00e+00 1.00e+00h  1
   8  2.7877521e+01 9.25e-06 6.59e-01  -1.0 1.90e-04   2.3 1.00e+00 1.00e+00h  1
   9  2.7877298e+01 1.25e-06 1.39e-02  -1.7 2.23e-04   1.8 1.00e+00 1.00e+00h  1
iter    objective    inf_pr   inf_du lg(mu)  ||d||  lg(rg) alpha_du alpha_pr  ls
  10  2.7876728e+01 1.78e-06 1.19e-02  -3.8 5.69e-04   1.3 1.00e+00 1.00e+00h  1
  11  2.7875020e+01 1.58e-05 1.18e-02  -3.8 1.71e-03   0.8 1.00e+00 1.00e+00h  1
  12  2.7869899e+01 1.22e-04 1.18e-02  -3.8 5.12e-03   0.4 1.00e+00 1.00e+00h  1
  13  2.7854581e+01 8.67e-04 1.18e-02  -3.8 1.53e-02  -0.1 1.00e+00 1.00e+00h  1
  14  2.7808947e+01 4.92e-03 1.17e-02  -3.8 4.56e-02  -0.6 1.00e+00 1.00e+00h  1
  15  2.7673968e+01 1.46e-02 1.16e-02  -3.8 1.35e-01  -1.1 1.00e+00 1.00e+00h  1
  16  2.7282473e+01 1.71e-01 1.12e-02  -3.8 3.92e-01  -1.5 1.00e+00 1.00e+00h  1
  17  2.6206584e+01 1.17e+00 1.79e-02  -3.8 1.08e+00  -2.0 1.00e+00 1.00e+00f  1
  18  2.5975531e+01 1.17e+00 3.96e-02  -3.8 4.16e-01  -1.6 1.00e+00 6.84e-01h  1
  19  2.4948306e+01 1.13e+00 3.82e-02  -3.8 7.67e+01    -  4.12e-02 3.70e-02f  1
iter    objective    inf_pr   inf_du lg(mu)  ||d||  lg(rg) alpha_du alpha_pr  ls
  20  2.3970742e+01 1.11e+00 3.64e-02  -3.8 1.96e+01    -  3.60e-01 4.99e-02f  1
  21  1.9401293e+01 3.40e+00 3.38e-02  -3.8 1.63e+01    -  2.05e-01 2.81e-01f  1
  22  1.7870796e+01 3.12e+00 3.78e-02  -3.8 1.51e+01    -  7.29e-01 1.55e-01h  1
  23  1.7838651e+01 1.29e+01 6.18e-02  -3.8 7.96e+03    -  2.21e-04 9.74e-04h  1
  24  1.7588784e+01 1.24e+01 2.00e+00  -3.8 9.00e+01    -  8.37e-03 3.39e-02h  1
  25  1.7706791e+01 1.06e+01 1.36e+00  -3.8 4.68e+00  -1.2 6.97e-02 1.45e-01h  1
  26  1.7774940e+01 9.53e+00 1.22e+00  -3.8 4.35e+00  -1.6 4.33e-02 1.03e-01h  1
  27  1.7830485e+01 8.77e+00 1.12e+00  -3.8 3.76e+00  -1.2 7.98e-02 7.98e-02h  2
  28  1.7850267e+01 8.49e+00 1.08e+00  -3.8 3.78e+00  -1.7 1.63e-01 3.14e-02h  1
  29  1.7866573e+01 8.29e+00 1.06e+00  -3.8 3.46e+00  -1.3 2.07e-01 2.42e-02h  3
iter    objective    inf_pr   inf_du lg(mu)  ||d||  lg(rg) alpha_du alpha_pr  ls
  30  1.7868324e+01 8.26e+00 1.05e+00  -3.8 3.71e+00  -1.7 9.11e-02 2.82e-03h  6
  31  1.7868340e+01 8.26e+00 1.05e+00  -3.8 3.43e+00  -1.3 9.41e-02 2.42e-05h 13
  32  1.7868362e+01 8.26e+00 1.05e+00  -3.8 5.97e+00  -1.8 1.87e-02 3.65e-05h 12
  33  1.7897902e+01 7.90e+00 9.82e-01  -3.8 3.45e+00  -1.4 4.41e-02 4.41e-02s 19
  34  1.8100702e+01 5.48e+00 6.76e-01  -3.8 3.18e+00  -0.9 3.03e-01 3.03e-01s 19
  35  1.8163461e+01 4.84e+00 6.07e-01  -3.8 3.11e+00  -1.4 3.21e-01 0.00e+00S 19
  36  1.8190940e+01 4.51e+00 5.66e-01  -3.8 9.78e+00  -1.9 1.95e-02 6.82e-02h  2
  37  1.8289981e+01 3.47e+00 4.28e-01  -3.8 2.07e+00  -1.5 2.55e-01 2.29e-01h  1
  38  1.8645144e+01 1.58e+00 2.56e+00  -3.8 1.57e+00  -1.1 4.63e-01 1.00e+00h  1
  39  1.8634563e+01 1.10e+00 1.69e+00  -3.8 6.38e-01  -1.5 8.68e-01 3.70e-01h  1
iter    objective    inf_pr   inf_du lg(mu)  ||d||  lg(rg) alpha_du alpha_pr  ls
  40  1.8643244e+01 5.48e-01 4.83e-01  -3.8 5.70e-01  -1.1 2.68e-01 1.00e+00h  1
  41  1.8597583e+01 3.95e-01 1.86e-01  -3.8 2.69e-01  -1.6 6.79e-01 7.88e-01h  1
  42  1.8561355e+01 3.26e-01 1.53e-01  -3.8 4.52e-01  -2.1 6.00e-01 1.94e-01h  1
  43  1.8208761e+01 4.53e-01 1.68e-01  -3.8 1.04e+00  -2.5 1.47e-01 8.34e-01h  1
  44  1.8162736e+01 3.54e-01 1.10e-01  -3.8 5.46e-01  -2.1 1.00e+00 3.57e-01h  1
  45  1.8066363e+01 5.82e+00 7.97e-02  -3.8 4.06e+00  -2.6 4.35e-01 2.72e-01h  1
  46  1.7644302e+01 3.07e+00 3.81e-02  -3.8 2.71e+00  -3.1 9.97e-01 5.13e-01h  1
  47  1.7457024e+01 1.83e+00 2.72e-02  -3.8 1.16e+00  -2.6 5.61e-01 7.67e-01h  1
  48  1.7247101e+01 1.34e+00 3.91e-02  -3.8 3.47e+00  -3.1 9.21e-01 3.96e-01h  1
  49  1.7095312e+01 2.08e+00 2.60e-02  -3.8 1.65e+00  -2.7 7.29e-01 8.82e-01h  1
iter    objective    inf_pr   inf_du lg(mu)  ||d||  lg(rg) alpha_du alpha_pr  ls
  50  1.7095399e+01 1.67e+00 1.82e-01  -3.8 2.58e+00  -1.4 4.88e-02 2.35e-01h  1
  51  1.7095989e+01 1.61e+00 2.19e-01  -3.8 2.01e+00  -0.0 3.46e-04 3.67e-02h  1
  52  1.7096876e+01 1.53e+00 1.68e-01  -3.8 2.68e+00  -0.5 1.71e-01 5.14e-02h  1
  53  1.7098242e+01 1.42e+00 2.48e-01  -3.8 2.20e+00  -0.1 6.96e-02 7.20e-02h  1
  54  1.7099307e+01 1.34e+00 2.80e-01  -3.8 2.81e+00  -0.6 2.17e-01 6.05e-02h  3
  55  1.7098537e+01 1.07e+00 2.99e-01  -3.8 3.92e+00  -1.0 2.46e-01 2.27e-01h  1
  56  1.7102711e+01 1.37e+00 3.24e-01  -3.8 1.46e+00  -0.6 5.84e-01 4.15e-01h  1
  57  1.7103816e+01 1.08e+00 2.64e-01  -3.8 8.95e-01  -1.1 6.29e-01 1.61e-01h  1
  58  1.7105620e+01 8.96e-01 2.60e-01  -3.8 1.07e+00  -0.7 6.70e-01 1.79e-01h  1
  59  1.7107405e+01 1.41e+00 1.75e-01  -3.8 1.84e+00  -1.1 1.00e+00 7.76e-01h  1
iter    objective    inf_pr   inf_du lg(mu)  ||d||  lg(rg) alpha_du alpha_pr  ls
  60  1.7107513e+01 6.26e-01 2.38e-01  -3.8 3.26e-01  -0.7 3.08e-01 1.00e+00h  1
  61  1.7104808e+01 1.19e-01 5.33e-02  -3.8 4.53e-01  -1.2 1.00e+00 8.21e-01h  1
  62  1.7088298e+01 1.05e-02 7.42e-03  -3.8 1.05e-01  -1.7 1.00e+00 1.00e+00h  1
  63  1.7062441e+01 1.57e-02 1.56e-02  -3.8 2.18e-01  -2.1 1.00e+00 5.81e-01h  1
  64  1.6993429e+01 1.30e-01 6.37e-03  -3.8 6.01e-01  -2.6 1.00e+00 6.64e-01h  1
  65  1.6861933e+01 8.23e-01 5.78e-03  -3.8 2.46e+00  -3.1 7.74e-01 6.07e-01h  1
  66  1.6837646e+01 6.25e-01 9.05e-03  -3.8 9.84e-01  -2.7 1.00e+00 3.71e-01h  1
  67  1.6815453e+01 1.63e+00 1.19e-01  -3.8 6.21e-01  -2.2 9.79e-01 1.00e+00h  1
  68  1.6764048e+01 1.18e+00 2.19e-02  -3.8 8.93e-01  -2.7 1.00e+00 7.68e-01h  1
  69  1.6743672e+01 1.86e-01 3.58e-03  -3.8 4.63e-01  -2.3 1.00e+00 1.00e+00h  1
iter    objective    inf_pr   inf_du lg(mu)  ||d||  lg(rg) alpha_du alpha_pr  ls
  70  1.6736368e+01 1.90e-02 2.05e-03  -3.8 1.52e-01  -1.9 1.00e+00 1.00e+00h  1
  71  1.6714545e+01 8.15e-02 2.06e-03  -3.8 4.58e-01  -2.3 1.00e+00 1.00e+00h  1
  72  1.6658012e+01 2.05e+00 3.55e-03  -3.8 1.94e+00  -2.8 1.00e+00 1.00e+00h  1
  73  1.6583285e+01 8.24e-01 6.07e-03  -3.8 3.79e+00  -3.3 7.67e-01 7.15e-01h  1
  74  1.6550214e+01 9.81e-01 6.14e-03  -3.8 9.32e+00  -3.8 4.40e-01 2.20e-01h  1
  75  1.6520640e+01 4.04e+00 2.44e-02  -3.8 1.57e+01  -4.3 3.84e-02 1.78e-01h  1
  76  1.6522600e+01 1.96e+00 6.26e-02  -3.8 1.09e+00  -2.0 7.28e-01 8.84e-01h  1
  77  1.6523649e+01 1.05e+00 3.70e-02  -3.8 3.03e-01  -1.6 5.84e-01 1.00e+00h  1
  78  1.6521267e+01 7.19e-01 3.92e-02  -3.8 7.94e-01  -2.1 1.00e+00 1.00e+00h  1
  79  1.6513820e+01 1.78e-01 6.10e-02  -3.8 4.33e-01  -2.6 1.00e+00 1.00e+00h  1
iter    objective    inf_pr   inf_du lg(mu)  ||d||  lg(rg) alpha_du alpha_pr  ls
  80  1.6514959e+01 1.80e-01 6.09e-02  -3.8 1.00e+03    -  7.78e-04 1.76e-03h  2
  81  1.6498614e+01 8.47e-02 1.30e-02  -3.8 5.89e-01  -3.0 1.00e+00 1.00e+00h  1
  82  1.6481265e+01 2.38e-01 6.96e-03  -3.8 1.16e+00  -3.5 1.00e+00 1.00e+00h  1
  83  1.6480966e+01 5.11e-02 3.20e-03  -3.8 1.48e-01  -2.2 1.00e+00 1.00e+00h  1
  84  1.6479250e+01 4.13e-02 2.58e-02  -3.8 1.57e-01  -2.7 1.00e+00 1.00e+00h  1
  85  1.6475819e+01 1.75e-01 5.65e-03  -3.8 2.57e-01  -3.1 1.00e+00 1.00e+00h  1
  86  1.6472407e+01 1.53e+00 1.17e-02  -3.8 2.15e+01    -  1.56e-01 1.99e-01h  1
  87  1.6467300e+01 1.83e+00 1.77e-02  -3.8 1.18e+00    -  1.00e+00 1.00e+00h  1
  88  1.6474034e+01 4.45e-01 2.05e-02  -3.8 5.45e-01    -  1.00e+00 1.00e+00H  1
  89  1.6474743e+01 7.96e-01 1.42e-01  -3.8 3.08e-01  -0.9 1.00e+00 1.00e+00h  1
iter    objective    inf_pr   inf_du lg(mu)  ||d||  lg(rg) alpha_du alpha_pr  ls
  90  1.6472841e+01 9.20e-01 3.74e-02  -3.8 2.70e-01  -1.4 1.00e+00 1.00e+00h  1
  91  1.6471236e+01 1.83e+00 7.13e-03  -3.8 1.96e-01  -1.9 1.00e+00 1.00e+00h  1
  92  1.6468737e+01 1.42e+00 8.77e-03  -3.8 5.39e-01  -2.3 1.00e+00 1.00e+00h  1
  93  1.6468857e+01 9.46e-01 4.08e-01  -3.8 3.73e-01  -1.0 1.00e+00 1.00e+00h  1
  94  1.6469744e+01 4.45e-01 4.78e-01  -3.8 2.24e-01   0.3 1.00e+00 1.00e+00h  1
  95  1.6469666e+01 6.22e-01 4.83e-01  -3.8 6.39e+00  -0.1 8.95e-02 1.25e-02h  4
  96  1.6471056e+01 2.24e-01 1.61e+00  -3.8 1.88e-01  -0.6 1.00e+00 5.00e-01h  2
  97  1.6471719e+01 6.80e-02 7.29e-01  -3.8 6.37e-02  -0.2 1.00e+00 5.00e-01h  2
  98  1.6472408e+01 1.56e-02 2.29e-01  -3.8 2.56e-02  -0.7 1.00e+00 1.00e+00h  1
  99  1.6472342e+01 1.25e-04 6.97e-03  -3.8 2.86e-03  -0.3 1.00e+00 1.00e+00h  1
iter    objective    inf_pr   inf_du lg(mu)  ||d||  lg(rg) alpha_du alpha_pr  ls
 100  1.6463574e+01 1.81e+00 1.03e-02  -3.8 4.89e+00    -  5.86e-01 5.54e-01h  1
 101  1.6467357e+01 1.41e+00 3.46e-01  -3.8 5.06e-01  -0.7 4.44e-02 5.00e-01h  2
 102  1.6468752e+01 1.07e+00 2.82e-01  -3.8 4.19e-01  -0.3 1.00e+00 2.50e-01h  3
 103  1.6469436e+01 9.33e-01 2.49e-01  -3.8 3.74e-01   0.1 1.00e+00 1.25e-01h  4
 104  1.6469732e+01 8.75e-01 2.34e-01  -3.8 3.77e-01  -0.4 1.00e+00 6.25e-02h  5
 105  1.6469793e+01 8.61e-01 2.31e-01  -3.8 4.20e-01  -0.8 1.00e+00 1.56e-02h  7
 106  1.6472876e+01 3.10e-02 1.71e-01  -3.8 5.12e-01  -1.3 1.00e+00 1.00e+00h  1
 107  1.6471825e+01 2.05e-03 1.52e-02  -3.8 9.20e-02  -1.8 1.00e+00 1.00e+00h  1
 108  1.6470260e+01 5.46e-02 3.89e-03  -3.8 2.60e-01  -2.3 1.00e+00 1.00e+00h  1
 109  1.6469408e+01 1.30e-01 1.19e-03  -3.8 3.36e-01  -2.7 1.00e+00 1.00e+00h  1
iter    objective    inf_pr   inf_du lg(mu)  ||d||  lg(rg) alpha_du alpha_pr  ls
 110  1.6469276e+01 1.42e-02 1.14e-03  -3.8 1.99e-01  -3.2 1.00e+00 1.00e+00h  1
 111  1.6469357e+01 1.38e-02 7.75e-03  -3.8 3.75e+00  -3.7 3.66e-01 3.12e-02h  6
 112  1.6469540e+01 5.18e-03 4.78e-03  -3.8 1.48e-01  -3.3 1.00e+00 1.00e+00h  1
 113  1.6474308e+01 7.20e-04 2.25e-01  -3.8 1.09e+00    -  1.00e+00 1.00e+00H  1
 114  1.6470227e+01 4.73e-03 8.02e-02  -3.8 8.91e-01    -  1.00e+00 8.14e-01H  1
 115  1.6469725e+01 7.71e-03 1.81e-02  -3.8 1.03e-01    -  1.00e+00 1.00e+00f  1
 116  1.6469891e+01 2.20e-03 6.68e-03  -3.8 5.10e-02    -  1.00e+00 1.00e+00h  1
 117  1.6469624e+01 1.85e-03 2.62e-05  -3.8 1.22e-01    -  1.00e+00 1.00e+00h  1
 118  1.6469736e+01 6.36e-07 8.05e-08  -3.8 4.05e-03    -  1.00e+00 1.00e+00h  1
 119  1.6462986e+01 5.72e-02 4.73e-03  -5.7 3.98e-01    -  9.21e-01 5.91e-01f  1
iter    objective    inf_pr   inf_du lg(mu)  ||d||  lg(rg) alpha_du alpha_pr  ls
 120  1.6460859e+01 7.18e-02 9.36e-03  -5.7 4.76e-01    -  8.51e-01 5.74e-01h  1
 121  1.6459968e+01 3.10e-02 3.24e-03  -5.7 9.62e-01    -  1.00e+00 6.86e-01h  1
 122  1.6458869e+01 6.08e-02 1.48e-03  -5.7 5.12e-01    -  1.00e+00 6.16e-01h  1
 123  1.6458543e+01 4.40e-02 3.56e-04  -5.7 5.90e-02    -  1.00e+00 1.00e+00h  1
 124  1.6458438e+01 2.81e-01 5.94e-03  -5.7 1.21e-01    -  1.00e+00 1.00e+00h  1
 125  1.6457735e+01 1.60e-01 2.51e-03  -5.7 2.12e-01    -  5.03e-01 1.00e+00h  1
 126  1.6457381e+01 4.47e-01 1.09e-02  -5.7 1.40e+00    -  2.73e-01 1.52e-01h  1
 127  1.6456543e+01 2.44e-01 6.03e-03  -5.7 2.65e-01    -  6.28e-01 4.49e-01h  1
 128  1.6457653e+01 6.70e-02 1.51e-03  -5.7 8.88e-02    -  1.00e+00 1.00e+00h  1
 129  1.6458296e+01 2.52e-02 6.85e-03  -5.7 1.62e-01    -  1.00e+00 3.18e-01H  1
iter    objective    inf_pr   inf_du lg(mu)  ||d||  lg(rg) alpha_du alpha_pr  ls
 130  1.6458769e+01 2.61e-03 1.25e-03  -5.7 1.53e-01    -  1.00e+00 1.00e+00H  1
 131  1.6458694e+01 1.69e-03 7.55e-03  -5.7 5.91e-01    -  8.34e-01 5.27e-02h  4
 132  1.6458654e+01 6.29e-03 9.95e-03  -5.7 3.38e-01    -  9.94e-01 5.12e-02h  5
 133  1.6458615e+01 3.15e-03 1.91e-03  -5.7 1.84e-01    -  1.00e+00 1.00e+00H  1
 134  1.6458605e+01 6.07e-03 7.87e-04  -5.7 5.61e-02    -  1.00e+00 1.00e+00H  1
 135  1.6458700e+01 1.75e-03 4.28e-03  -5.7 8.40e-02    -  1.00e+00 1.00e+00H  1
 136  1.6458749e+01 7.47e-04 2.21e-03  -5.7 1.75e-01    -  6.11e-01 1.00e+00H  1
 137  1.6458708e+01 7.56e-04 1.20e-02  -5.7 3.01e-01    -  1.00e+00 6.12e-02h  4
 138  1.6458661e+01 3.74e-03 8.93e-03  -5.7 2.19e-01    -  1.00e+00 1.07e-01h  4
 139  1.6458634e+01 3.28e-03 8.08e-03  -5.7 1.15e-01    -  1.00e+00 1.25e-01h  4
iter    objective    inf_pr   inf_du lg(mu)  ||d||  lg(rg) alpha_du alpha_pr  ls
 140  1.6458614e+01 2.31e-03 2.57e-03  -5.7 6.95e-02    -  1.00e+00 1.00e+00H  1
 141  1.6458639e+01 1.81e-03 1.40e-03  -5.7 9.69e-02    -  1.00e+00 1.00e+00H  1
 142  1.6458715e+01 7.83e-04 4.51e-03  -5.7 1.17e-01    -  1.00e+00 1.00e+00H  1
 143  1.6458751e+01 1.36e-04 1.85e-03  -5.7 1.84e-01    -  7.61e-01 1.00e+00H  1
 144  1.6458721e+01 1.68e-04 1.24e-02  -5.7 3.12e-01    -  1.00e+00 4.19e-02h  4
 145  1.6458695e+01 3.27e-04 9.17e-03  -5.7 2.54e-01    -  1.00e+00 4.87e-02h  5
 146  1.6458670e+01 4.57e-04 1.01e-02  -5.7 1.98e-01    -  1.00e+00 6.25e-02h  5
 147  1.6458653e+01 4.33e-04 8.63e-03  -5.7 1.37e-01    -  1.00e+00 6.25e-02h  5
 148  1.6458629e+01 5.26e-04 7.54e-03  -5.7 9.93e-02    -  1.00e+00 1.25e-01h  4
 149  1.6458534e+01 3.49e-02 2.29e-03  -5.7 6.76e-02    -  1.00e+00 1.00e+00h  1
iter    objective    inf_pr   inf_du lg(mu)  ||d||  lg(rg) alpha_du alpha_pr  ls
 150  1.6458568e+01 8.88e-03 4.40e-04  -5.7 2.94e-02    -  1.00e+00 1.00e+00h  1
 151  1.6458600e+01 4.47e-03 2.05e-03  -5.7 2.72e-02    -  1.00e+00 1.00e+00H  1
 152  1.6458587e+01 2.37e-03 3.03e-04  -5.7 3.59e-02    -  1.00e+00 1.00e+00H  1
 153  1.6458630e+01 9.87e-04 3.08e-03  -5.7 4.66e-02    -  1.00e+00 1.00e+00H  1
 154  1.6458511e+01 9.08e-02 1.79e-03  -5.7 1.38e-01    -  8.69e-01 1.00e+00h  1
 155  1.6458384e+01 1.95e-01 6.79e-03  -5.7 2.49e-01    -  1.00e+00 5.55e-01h  1
 156  1.6458098e+01 1.13e-01 2.20e-03  -5.7 1.75e-01    -  8.91e-01 1.00e+00h  1
 157  1.6458044e+01 9.62e-02 3.18e-03  -5.7 4.44e-01    -  1.00e+00 1.35e-01h  1
 158  1.6458403e+01 6.67e-02 3.38e-03  -5.7 1.07e-01    -  1.00e+00 1.00e+00h  1
 159  1.6458420e+01 5.00e-02 2.53e-03  -5.7 1.25e-01    -  8.42e-01 2.50e-01h  3
iter    objective    inf_pr   inf_du lg(mu)  ||d||  lg(rg) alpha_du alpha_pr  ls
 160  1.6458557e+01 1.19e-02 9.33e-04  -5.7 2.25e-02    -  1.00e+00 1.00e+00h  1
 161  1.6458610e+01 1.68e-03 2.56e-03  -5.7 4.13e-02    -  1.00e+00 1.00e+00H  1
 162  1.6458596e+01 6.04e-04 2.24e-03  -5.7 1.28e-01    -  9.19e-01 1.25e-01h  4
 163  1.6458588e+01 4.99e-04 3.67e-04  -5.7 3.19e-02    -  1.00e+00 1.00e+00H  1
 164  1.6458639e+01 2.66e-04 3.19e-03  -5.7 5.08e-02    -  1.00e+00 1.00e+00H  1
 165  1.6458747e+01 1.34e-04 1.90e-03  -5.7 1.48e-01    -  7.65e-01 1.00e+00H  1
 166  1.6458729e+01 1.02e-04 1.22e-02  -5.7 2.99e-01    -  1.00e+00 2.62e-02h  5
 167  1.6458716e+01 1.03e-04 9.68e-03  -5.7 2.60e-01    -  1.00e+00 2.40e-02h  6
 168  1.6458709e+01 1.06e-04 1.09e-02  -5.7 2.32e-01    -  1.00e+00 1.45e-02h  7
 169  1.6458702e+01 1.10e-04 1.02e-02  -5.7 2.18e-01    -  1.00e+00 1.56e-02h  7
iter    objective    inf_pr   inf_du lg(mu)  ||d||  lg(rg) alpha_du alpha_pr  ls
 170  1.6458699e+01 1.10e-04 1.03e-02  -5.7 2.03e-01    -  1.00e+00 7.81e-03h  8
 171  1.6458393e+01 2.98e-01 1.08e-02  -5.7 1.97e-01    -  1.00e+00 1.00e+00h  1
 172  1.6457628e+01 3.02e-02 1.53e-03  -5.7 1.86e-01    -  7.63e-01 1.00e+00h  1
 173  1.6458043e+01 1.91e-02 1.04e-02  -5.7 2.01e-01    -  6.22e-01 1.63e-01H  1
 174  1.6458604e+01 1.33e-03 1.52e-03  -5.7 6.51e-02    -  1.00e+00 1.00e+00H  1
 175  1.6458583e+01 1.27e-02 1.72e-03  -5.7 1.11e-01    -  9.94e-01 1.25e-01h  4
 176  1.6458572e+01 5.36e-03 3.54e-04  -5.7 1.73e-02    -  1.00e+00 1.00e+00h  1
 177  1.6458592e+01 2.72e-03 1.17e-03  -5.7 1.99e-02    -  1.00e+00 1.00e+00H  1
 178  1.6458617e+01 3.57e-04 4.32e-04  -5.7 5.20e-02    -  1.00e+00 1.00e+00H  1
 179  1.6458590e+01 6.01e-03 3.06e-03  -5.7 1.59e-01    -  1.00e+00 1.25e-01h  4
iter    objective    inf_pr   inf_du lg(mu)  ||d||  lg(rg) alpha_du alpha_pr  ls
 180  1.6458569e+01 2.18e-02 1.62e-03  -5.7 3.61e-02    -  1.00e+00 1.00e+00h  1
 181  1.6458573e+01 2.14e-02 3.32e-04  -5.7 3.65e-02    -  1.00e+00 1.00e+00h  1
 182  1.6458620e+01 2.17e-04 2.85e-03  -5.7 5.49e-02    -  1.00e+00 1.00e+00H  1
 183  1.6458682e+01 6.09e-05 1.67e-03  -5.7 1.21e-01    -  8.88e-01 1.00e+00H  1
 184  1.6458669e+01 7.42e-05 8.15e-03  -5.7 1.93e-01    -  1.00e+00 3.69e-02h  5
 185  1.6458660e+01 9.80e-05 6.76e-03  -5.7 1.62e-01    -  1.00e+00 3.12e-02h  6
 186  1.6458656e+01 1.01e-04 7.06e-03  -5.7 1.45e-01    -  1.00e+00 1.56e-02h  7
 187  1.6458653e+01 1.04e-04 6.80e-03  -5.7 1.37e-01    -  1.00e+00 1.56e-02h  7
 188  1.6458650e+01 1.07e-04 6.70e-03  -5.7 1.30e-01    -  1.00e+00 1.56e-02h  7
 189  1.6458497e+01 1.53e-01 6.31e-03  -5.7 1.23e-01    -  1.00e+00 1.00e+00h  1
iter    objective    inf_pr   inf_du lg(mu)  ||d||  lg(rg) alpha_du alpha_pr  ls
 190  1.6458318e+01 9.20e-02 1.81e-03  -5.7 1.72e-01    -  6.08e-01 1.00e+00h  1
 191  1.6458267e+01 2.60e-01 8.81e-03  -5.7 2.79e-01    -  1.00e+00 6.50e-01h  1
 192  1.6457745e+01 1.06e-01 2.04e-03  -5.7 2.06e-01    -  2.96e-01 1.00e+00h  1
 193  1.6457732e+01 1.74e-01 5.38e-03  -5.7 4.56e-01    -  1.00e+00 2.28e-01h  2
 194  1.6458155e+01 7.84e-02 8.56e-04  -5.7 8.01e-02    -  7.99e-01 1.00e+00h  1
 195  1.6458128e+01 7.18e-02 2.08e-03  -5.7 4.01e-01    -  1.00e+00 7.62e-02h  4
 196  1.6458322e+01 4.53e-02 5.26e-03  -5.7 1.22e-01    -  1.00e+00 2.73e-01H  1
 197  1.6458514e+01 4.29e-02 4.60e-04  -5.7 4.89e-02    -  1.00e+00 1.00e+00h  1
 198  1.6458496e+01 3.82e-02 1.21e-03  -5.7 1.78e-01    -  1.00e+00 1.25e-01h  4
 199  1.6458564e+01 1.08e-02 1.50e-03  -5.7 3.21e-02    -  1.00e+00 1.00e+00h  1
iter    objective    inf_pr   inf_du lg(mu)  ||d||  lg(rg) alpha_du alpha_pr  ls
 200  1.6458587e+01 1.47e-03 3.19e-04  -5.7 2.94e-02    -  1.00e+00 1.00e+00H  1
 201  1.6458615e+01 7.45e-04 2.76e-03  -5.7 4.67e-02    -  1.00e+00 1.00e+00H  1
 202  1.6458694e+01 7.92e-05 1.72e-03  -5.7 1.23e-01    -  8.72e-01 1.00e+00H  1
 203  1.6458680e+01 7.50e-05 8.98e-03  -5.7 2.14e-01    -  1.00e+00 3.32e-02h  5
 204  1.6458675e+01 7.63e-05 7.18e-03  -5.7 1.84e-01    -  1.00e+00 1.50e-02h  7
 205  1.6458670e+01 7.95e-05 7.98e-03  -5.7 1.71e-01    -  1.00e+00 1.56e-02h  7
 206  1.6458666e+01 8.52e-05 7.45e-03  -5.7 1.61e-01    -  1.00e+00 1.56e-02h  7
 207  1.6458462e+01 2.12e-01 8.13e-03  -5.7 1.52e-01    -  1.00e+00 1.00e+00h  1
 208  1.6458094e+01 9.17e-02 1.80e-03  -5.7 2.00e-01    -  5.31e-01 1.00e+00h  1
 209  1.6458436e+01 8.02e-02 8.55e-03  -5.7 3.25e-01    -  1.00e+00 3.60e-01H  1
iter    objective    inf_pr   inf_du lg(mu)  ||d||  lg(rg) alpha_du alpha_pr  ls
 210  1.6458338e+01 6.94e-02 2.23e-03  -5.7 1.70e-01    -  6.49e-01 5.00e-01h  2
 211  1.6458386e+01 6.55e-02 3.45e-03  -5.7 1.04e-01    -  1.00e+00 5.00e-01h  2
 212  1.6458514e+01 1.80e-02 3.04e-04  -5.7 2.22e-02    -  1.00e+00 1.00e+00h  1
 213  1.6458516e+01 1.62e-02 4.52e-04  -5.7 7.27e-02    -  1.00e+00 1.25e-01h  4
 214  1.6458578e+01 8.95e-03 1.07e-03  -5.7 1.45e-02    -  1.00e+00 1.00e+00h  1
 215  1.6458578e+01 9.57e-03 2.79e-04  -5.7 2.06e-02    -  1.00e+00 1.00e+00h  1
 216  1.6458588e+01 9.73e-04 1.61e-03  -5.7 2.55e-02    -  1.00e+00 1.00e+00H  1
 217  1.6458575e+01 1.20e-02 2.95e-04  -5.7 2.98e-02    -  1.00e+00 1.00e+00h  1
 218  1.6458595e+01 7.40e-04 2.10e-03  -5.7 3.44e-02    -  1.00e+00 1.00e+00H  1
 219  1.6458569e+01 1.26e-02 4.67e-04  -5.7 3.51e-02    -  1.00e+00 1.00e+00h  1
iter    objective    inf_pr   inf_du lg(mu)  ||d||  lg(rg) alpha_du alpha_pr  ls
 220  1.6458608e+01 4.94e-04 2.52e-03  -5.7 3.79e-02    -  1.00e+00 1.00e+00H  1
 221  1.6458655e+01 5.53e-05 1.42e-03  -5.7 9.96e-02    -  1.00e+00 1.00e+00H  1
 222  1.6458643e+01 1.30e-04 6.54e-03  -5.7 1.64e-01    -  1.00e+00 4.52e-02h  5
 223  1.6458630e+01 2.60e-04 5.23e-03  -5.7 1.34e-01    -  1.00e+00 6.25e-02h  5
 224  1.6458621e+01 2.80e-04 5.07e-03  -5.7 1.03e-01    -  1.00e+00 6.25e-02h  5
 225  1.6458607e+01 4.23e-04 4.35e-03  -5.7 9.04e-02    -  1.00e+00 1.25e-01h  4
 226  1.6458611e+01 1.14e-04 2.57e-03  -5.7 4.95e-02    -  1.00e+00 1.00e+00H  1
 227  1.6458642e+01 4.53e-05 1.42e-03  -5.7 9.71e-02    -  1.00e+00 1.00e+00H  1
 228  1.6458637e+01 4.85e-05 5.49e-03  -5.7 1.22e-01    -  1.00e+00 2.88e-02h  6
 229  1.6458632e+01 5.17e-05 4.62e-03  -5.7 1.13e-01    -  1.00e+00 3.12e-02h  6
iter    objective    inf_pr   inf_du lg(mu)  ||d||  lg(rg) alpha_du alpha_pr  ls
 230  1.6458628e+01 5.42e-05 4.67e-03  -5.7 1.03e-01    -  1.00e+00 3.12e-02h  6
 231  1.6458624e+01 5.60e-05 4.43e-03  -5.7 9.37e-02    -  1.00e+00 3.12e-02h  6
 232  1.6458611e+01 4.70e-04 3.86e-03  -5.7 8.40e-02    -  1.00e+00 1.25e-01h  4
 233  1.6458555e+01 6.02e-02 3.05e-03  -5.7 6.20e-02    -  1.00e+00 1.00e+00h  1
 234  1.6458518e+01 7.18e-02 1.43e-03  -5.7 1.01e-01    -  1.00e+00 1.00e+00h  1
 235  1.6458491e+01 7.49e-02 3.04e-03  -5.7 1.50e-01    -  1.00e+00 4.50e-01h  2
 236  1.6458525e+01 3.72e-02 4.13e-04  -5.7 4.74e-02    -  1.00e+00 1.00e+00h  1
 237  1.6458506e+01 5.63e-02 2.06e-03  -5.7 1.42e-01    -  1.00e+00 2.50e-01h  3
 238  1.6458525e+01 3.36e-02 5.34e-04  -5.7 3.78e-02    -  1.00e+00 5.00e-01h  2
 239  1.6458567e+01 2.57e-02 1.94e-03  -5.7 3.79e-02    -  1.00e+00 1.00e+00h  1
iter    objective    inf_pr   inf_du lg(mu)  ||d||  lg(rg) alpha_du alpha_pr  ls
 240  1.6458571e+01 1.60e-02 2.97e-04  -5.7 3.30e-02    -  1.00e+00 1.00e+00h  1
 241  1.6458614e+01 1.61e-04 2.67e-03  -5.7 4.51e-02    -  1.00e+00 1.00e+00H  1
 242  1.6458665e+01 4.99e-05 1.57e-03  -5.7 1.10e-01    -  9.71e-01 1.00e+00H  1
 243  1.6458659e+01 5.26e-05 7.34e-03  -5.7 1.77e-01    -  1.00e+00 1.95e-02h  6
 244  1.6458464e+01 2.19e-01 8.37e-03  -5.7 1.59e-01    -  1.00e+00 1.00e+00h  1
 245  1.6458058e+01 8.40e-02 1.60e-03  -5.7 1.98e-01    -  4.05e-01 1.00e+00h  1
 246  1.6458403e+01 7.13e-02 9.42e-03  -5.7 3.14e-01    -  1.00e+00 3.29e-01H  1
 247  1.6458344e+01 6.93e-02 2.84e-03  -5.7 1.61e-01    -  6.31e-01 5.00e-01h  2
 248  1.6458340e+01 7.75e-02 3.83e-03  -5.7 1.50e-01    -  1.00e+00 2.50e-01h  3
 249  1.6458452e+01 5.27e-02 5.76e-04  -5.7 4.24e-02    -  1.00e+00 1.00e+00h  1
iter    objective    inf_pr   inf_du lg(mu)  ||d||  lg(rg) alpha_du alpha_pr  ls
 250  1.6458420e+01 5.21e-02 1.43e-03  -5.7 2.79e-01    -  1.00e+00 9.29e-02h  4
 251  1.6458538e+01 3.03e-02 2.07e-03  -5.7 4.46e-02    -  1.00e+00 1.00e+00h  1
 252  1.6458570e+01 1.32e-02 2.78e-04  -5.7 3.14e-02    -  1.00e+00 1.00e+00h  1
 253  1.6458609e+01 1.21e-04 2.52e-03  -5.7 3.90e-02    -  1.00e+00 1.00e+00H  1
 254  1.6458650e+01 4.39e-05 1.46e-03  -5.7 9.96e-02    -  1.00e+00 1.00e+00H  1
 255  1.6458608e+01 1.26e-02 5.20e-03  -5.7 1.50e-01    -  1.00e+00 1.89e-01h  3
 256  1.6458599e+01 1.11e-02 3.61e-03  -5.7 6.97e-02    -  1.00e+00 1.25e-01h  4
 257  1.6458563e+01 1.06e-02 1.58e-03  -5.7 4.10e-02    -  1.00e+00 1.00e+00h  1
 258  1.6458576e+01 1.03e-02 2.91e-04  -5.7 2.61e-02    -  1.00e+00 1.00e+00h  1
 259  1.6458588e+01 5.55e-04 1.67e-03  -5.7 2.71e-02    -  1.00e+00 1.00e+00H  1
iter    objective    inf_pr   inf_du lg(mu)  ||d||  lg(rg) alpha_du alpha_pr  ls
 260  1.6458587e+01 1.97e-03 3.16e-04  -5.7 3.30e-02    -  1.00e+00 1.00e+00H  1
 261  1.6458581e+01 4.80e-03 7.64e-04  -5.7 4.74e-02    -  1.00e+00 2.50e-01h  3
 262  1.6458580e+01 1.33e-03 5.23e-04  -5.7 7.58e-03    -  1.00e+00 1.00e+00h  1
 263  1.6458582e+01 1.20e-05 1.58e-04  -5.7 3.64e-03    -  1.00e+00 1.00e+00H  1
 264  1.6458582e+01 2.62e-07 6.24e-04  -5.7 4.23e-03    -  1.00e+00 1.00e+00H  1
 265  1.6458581e+01 4.08e-03 1.61e-04  -5.7 9.30e-03    -  1.00e+00 1.00e+00h  1
 266  1.6458586e+01 6.38e-08 1.32e-03  -5.7 1.46e-02    -  1.00e+00 1.00e+00H  1
 267  1.6458586e+01 9.47e-08 2.95e-04  -5.7 2.57e-02    -  1.00e+00 1.00e+00H  1
 268  1.6458585e+01 1.40e-07 5.23e-04  -5.7 2.69e-02    -  1.00e+00 7.81e-03h  8
 269  1.6458585e+01 1.75e-07 5.07e-04  -5.7 2.63e-02    -  1.00e+00 3.91e-03h  9
iter    objective    inf_pr   inf_du lg(mu)  ||d||  lg(rg) alpha_du alpha_pr  ls
 270  1.6458585e+01 2.09e-07 5.05e-04  -5.7 2.61e-02    -  1.00e+00 3.91e-03h  9
 271  1.6458578e+01 1.65e-02 1.76e-03  -5.7 2.59e-02    -  1.00e+00 1.00e+00h  1
 272  1.6458574e+01 2.09e-02 3.32e-04  -5.7 3.58e-02    -  1.00e+00 1.00e+00h  1
 273  1.6458565e+01 6.61e-02 3.20e-03  -5.7 5.75e-02    -  1.00e+00 1.00e+00h  1
 274  1.6458509e+01 8.24e-02 1.64e-03  -5.7 1.16e-01    -  9.36e-01 1.00e+00h  1
 275  1.6458431e+01 1.71e-01 6.34e-03  -5.7 1.99e-01    -  1.00e+00 6.75e-01h  1
 276  1.6458231e+01 1.04e-01 2.08e-03  -5.7 1.69e-01    -  9.36e-01 1.00e+00h  1
 277  1.6458178e+01 9.81e-02 3.19e-03  -5.7 3.70e-01    -  1.00e+00 1.73e-01h  1
 278  1.6458441e+01 1.02e-02 1.64e-03  -5.7 6.69e-02    -  1.00e+00 1.00e+00h  1
 279  1.6458456e+01 8.90e-03 1.43e-03  -5.7 2.75e-02    -  1.00e+00 1.25e-01h  4
iter    objective    inf_pr   inf_du lg(mu)  ||d||  lg(rg) alpha_du alpha_pr  ls
 280  1.6458576e+01 9.54e-03 2.86e-04  -5.7 2.40e-02    -  1.00e+00 1.00e+00h  1
 281  1.6458587e+01 3.25e-08 1.60e-03  -5.7 2.53e-02    -  1.00e+00 1.00e+00H  1
 282  1.6458576e+01 1.12e-02 2.92e-04  -5.7 2.89e-02    -  1.00e+00 1.00e+00h  1
 283  1.6458575e+01 1.04e-02 9.22e-04  -5.7 3.06e-02    -  1.00e+00 5.00e-01h  2
 284  1.6458579e+01 8.71e-03 2.77e-04  -5.7 9.81e-03    -  1.00e+00 1.00e+00h  1
 285  1.6458577e+01 8.87e-03 3.97e-04  -5.7 3.01e-02    -  1.00e+00 2.50e-01h  3
 286  1.6458582e+01 2.45e-04 1.14e-04  -5.7 3.04e-03    -  1.00e+00 1.00e+00h  1
 287  1.6458582e+01 4.95e-05 1.17e-05  -5.7 6.86e-04    -  1.00e+00 1.00e+00h  1
 288  1.6458582e+01 8.30e-07 4.04e-07  -5.7 1.20e-04    -  1.00e+00 1.00e+00h  1
 289  1.6458487e+01 9.92e-05 1.28e-05  -7.0 2.62e-02    -  1.00e+00 9.83e-01h  1
iter    objective    inf_pr   inf_du lg(mu)  ||d||  lg(rg) alpha_du alpha_pr  ls
 290  1.6458485e+01 1.62e-06 6.56e-08  -7.0 5.47e-03    -  1.00e+00 1.00e+00f  1
 291  1.6458485e+01 3.66e-08 9.04e-10  -7.0 9.88e-04    -  1.00e+00 1.00e+00h  1

Number of Iterations....: 291

                                   (scaled)                 (unscaled)
Objective...............:   1.6458485386383977e+01    1.6458485386383977e+01
Dual infeasibility......:   9.0375339000935574e-10    9.0375339000935574e-10
Constraint violation....:   3.6600803277053728e-08    3.6600803277053728e-08
Variable bound violation:   0.0000000000000000e+00    0.0000000000000000e+00
Complementarity.........:   9.6011622597275600e-08    9.6011622597275600e-08
Overall NLP error.......:   9.6011622597275600e-08    9.6011622597275600e-08


Number of objective function evaluations             = 924
Number of objective gradient evaluations             = 292
Number of equality constraint evaluations            = 924
Number of inequality constraint evaluations          = 924
Number of equality constraint Jacobian evaluations   = 292
Number of inequality constraint Jacobian evaluations = 292
Number of Lagrangian Hessian evaluations             = 291
Total seconds in IPOPT                               = 39.154

EXIT: Optimal Solution Found.
      solver  :   t_proc      (avg)   t_wall      (avg)    n_eval
       nlp_f  |  23.36ms ( 25.28us)  23.42ms ( 25.35us)       924
       nlp_g  |   2.94 s (  3.18ms)   2.95 s (  3.20ms)       924
  nlp_grad_f  |  12.09ms ( 41.25us)  12.13ms ( 41.39us)       293
  nlp_hess_l  |  25.94 s ( 89.13ms)  26.05 s ( 89.52ms)       291
   nlp_jac_g  |   6.81 s ( 23.23ms)   6.84 s ( 23.34ms)       293
       total  |  38.99 s ( 38.99 s)  39.15 s ( 39.15 s)         1
  Success: True
  Cost: 16.4585
  Iterations: 291
  Solve time: 45.81 s
  Max obstacle slack: 0.0000e+00
  Min obstacle clearance: inf m
  Accepted: True

Accepted attempt: baseline

Generating plots...
  Saved: /run/media/saveas/Secondary-Storage/Masters/CS234/CS234_Reinforcement_Learning/Final Project/CS234_Final_Project/results/trajectory_optimization/nlp/TRACK2_280m/base/ipopt_single_stage_trajectory.png
  Saved: /run/media/saveas/Secondary-Storage/Masters/CS234/CS234_Reinforcement_Learning/Final Project/CS234_Final_Project/results/trajectory_optimization/nlp/TRACK2_280m/base/ipopt_single_stage_states.png
  Saved: /run/media/saveas/Secondary-Storage/Masters/CS234/CS234_Reinforcement_Learning/Final Project/CS234_Final_Project/results/trajectory_optimization/nlp/TRACK2_280m/base/ipopt_single_stage_controls.png

Generating animation...
  Saved: /run/media/saveas/Secondary-Storage/Masters/CS234/CS234_Reinforcement_Learning/Final Project/CS234_Final_Project/results/trajectory_optimization/nlp/TRACK2_280m/base/ipopt_single_stage_animation.gif

======================================================================
SUMMARY
======================================================================
Selected attempt: baseline
Attempt                    N      Subs   Clear    Iters    Time [s]   Cost [s]   Max Sigma    Min Clear [m]  Accepted
-----------------------------------------------------------------------------------------------------------------------------
baseline                   120    7      0.000    291      45.81      16.4585    0.000e+00    inf            True

All outputs saved to: /run/media/saveas/Secondary-Storage/Masters/CS234/CS234_Reinforcement_Learning/Final Project/CS234_Final_Project/results/trajectory_optimization/nlp/TRACK2_280m/base
